
&control
    calculation='relax',
    restart_mode='restart',
    prefix='ag977_bi_ed',
    tstress=.TRUE.,
    pseudo_dir = './',
    outdir='./slab_bi_ed',    
    etot_conv_thr = 1e-5,
    forc_conv_thr = 1e-4,
    nstep = 999,
    max_seconds = 28200,
 /
 &system
    ibrav = 0,    
    celldm(1) = 1.88973,
    nat=58,
    ntyp= 2,
    ecutwfc = 45,
    ecutrho=270,
    !assume_isolated='2D'
    occupations='smearing', smearing='marzari-vanderbilt', degauss=0.06
 /
 &electrons
     conv_thr=1e-8,
     diagonalization = 'david',
     mixing_mode = 'local-TF',
     mixing_beta=0.7
 /
&IONS
  ion_dynamics='bfgs'
/
&CELL
  cell_dynamics = 'bfgs'
  cell_dofree='2Dxy'
/
ATOMIC_SPECIES
 Ag  107.8682   Ag.pbe-n-rrkjus_psl.1.0.0.UPF
 Bi  208.9804   Bi.pbe-dn-rrkjus_psl.1.0.0.UPF
CELL_PARAMETERS alat
  18.772918504   0.000000000   0.000000000
   0.000000000   2.898346597   0.000000000
   0.000000000   0.000000000 -39.000000000
ATOMIC_POSITIONS angstrom
Ag       9.168682510   2.898346597   8.418519115
Ag      14.209377933   2.898346597   9.075222247
Ag      13.252725436   2.898346597  16.255020536
Ag      19.245222640   2.898346597   9.704436758
Ag      18.291399729   2.898346597  16.867659794
Ag      24.269949952   2.898346597  10.371717424
Ag      23.323982288   2.898346597  17.516364579
Ag      28.387781585   2.898346597  18.150150553
Ag      10.330007703   1.449173298   6.153843658
Ag       9.384038214   1.449173298  13.298472667
Ag      15.362594669   1.449173298   6.802523182
Ag      14.408765707   1.449173298  13.965759572
Ag      20.401261643   1.449173298   7.415174867
Ag      19.444617252   1.449173298  14.594968338
Ag      25.419665795   1.449173298   8.093477931
Ag      24.485306491   1.449173298  15.251678780
Ag       7.804789334   2.898346597   5.828678683
Ag      12.847768885   2.898346597   6.480588184
Ag      11.899971899   2.898346597  13.628670571
Ag      17.882203882   2.898346597   7.110498547
Ag      16.924439975   2.898346597  14.277810035
Ag      22.897374894   2.898346597   7.765739502
Ag      21.964593458   2.898346597  14.922283570
Ag      27.007279195   2.898346597  15.576712364
Ag       6.497642939   2.898346597   3.232736091
Ag      11.490214348   2.898346597   3.877943112
Ag      10.532322102   2.898346597  11.021324339
Ag      16.487978902   2.898346597   4.517398069
Ag      15.567142417   2.898346597  11.676492496
Ag      14.671222900   2.898346597  18.855432643
Ag      21.471357668   2.898346597   5.097284074
Ag      20.603307088   2.898346597  12.319057213
Ag      19.663877122   2.898346597  19.470064734
Ag      25.640031524   2.898346597  12.975455518
Ag      24.663775448   2.898346597  20.115266597
Ag      29.642399025   2.898346597  20.694848529
Ag       8.990215458   1.449173298   3.554931298
Ag      13.990109786   1.449173298   4.200122466
Ag      13.050685401   1.449173298  11.351133826
Ag      12.182627240   1.449173298  18.572907603
Ag      18.982759046   1.449173298   4.814760748
Ag      18.086845380   1.449173298  11.993703800
Ag      17.166008787   1.449173298  19.152777852
Ag      24.039164370   1.449173298   5.520038336
Ag      23.121668356   1.449173298  12.648868804
Ag      22.163773934   1.449173298  19.792267886
Ag      27.156345805   1.449173298  20.437453281
Ag      11.689402234   1.449173298   8.747912395
Ag      10.756612792   1.449173298  15.904448368
Ag      16.729548467   1.449173298   9.392385211
Ag      15.771785081   1.449173298  16.559697023
Ag      22.784546021   1.449173298   2.975342932
Ag      21.754019210   1.449173298  10.041521109
Ag      20.806225875   1.449173298  17.189604825
Ag      26.786912357   1.449173298  10.694737490
Ag      25.849199941   1.449173298  17.841513875
Bi      21.471000000   2.898000000  0.9750000000 
Bi      12.183000000   1.449000000  22.695000000

K_POINTS automatic
2 6 1 0 0 0
